language ESSENCE' 1.0

letting jobs = 102
letting horizon = 773
letting resourcesRenew = 2
letting resourcesNonrenew = 2
letting resourceLimits = [47, 46, 264, 264]
letting successors = [[2, 3, 4, 5, 6, 7, 8, 9, 10, 11, 12, 13, 15, 16, 18, 20, 21, 26, 34, 35], [58, 55, 47, 46, 43, 41, 38, 37, 36, 33, 31, 30, 29, 28, 14], [47, 46, 43, 41, 39, 38, 33, 31, 29, 25, 14], [52, 48, 47, 42, 41, 40, 37, 36, 33, 27, 23, 17], [55, 43, 41, 38, 33, 31, 29, 28, 24, 22], [60, 58, 49, 46, 43, 41, 37, 33, 32, 27, 24], [55, 52, 49, 46, 43, 42, 41, 31, 28, 24], [73, 64, 57, 52, 50, 46, 43, 42, 41, 36, 33, 28], [63, 57, 55, 50, 41, 37, 33, 19], [64, 60, 59, 57, 50, 46, 44, 42, 41, 39, 38, 37, 36], [60, 52, 50, 40, 39, 36, 33, 32, 27], [73, 64, 63, 60, 58, 55, 53, 52, 50, 46, 40, 33, 32], [64, 60, 55, 53, 52, 49, 38, 33, 32, 31], [64, 62, 52, 48, 42, 40, 32, 23], [63, 62, 55, 53, 50, 49, 48, 47, 44, 37, 33], [73, 64, 63, 60, 46, 42, 41, 40, 37, 32], [73, 64, 59, 58, 53, 50, 46, 28], [73, 64, 62, 60, 55, 54, 49, 43, 41, 40, 33], [61, 60, 59, 54, 53, 52, 49, 48, 43, 38, 32], [68, 64, 61, 59, 57, 52, 43, 40, 38, 36], [73, 64, 56, 54, 53, 52, 51, 49, 46, 33], [71, 68, 67, 64, 63, 54, 53, 51, 48, 47, 46, 40], [73, 71, 69, 68, 67, 63, 61, 59, 57, 56, 53, 51, 50, 45], [71, 67, 64, 62, 59, 57, 56, 50, 48, 47, 44], [73, 69, 67, 62, 61, 55, 37, 36], [73, 71, 70, 68, 67, 62, 57, 53, 52, 45, 44], [71, 61, 59, 55, 54, 53, 51, 45, 38], [63, 61, 60, 54, 45, 32], [82, 68, 67, 65, 64, 59, 56, 53, 52, 51, 50], [73, 71, 67, 56, 49, 48, 45, 44], [82, 73, 69, 67, 66, 65, 61, 51, 50], [101, 82, 75, 72, 71, 70, 67, 66, 56, 44], [86, 76, 71, 70, 69, 68, 67, 61, 59, 45], [86, 76, 73, 71, 67, 66, 56, 54, 45], [76, 73, 67, 54, 48, 45], [84, 82, 79, 70, 66, 56, 54, 49], [86, 71, 68, 66, 56, 45], [101, 100, 86, 85, 80, 78, 77, 76, 73, 69, 67, 66, 65, 62], [85, 81, 76, 74, 72, 69, 67, 63, 53], [85, 84, 66, 45], [82, 80, 79, 76, 75, 74, 72, 70, 67, 53], [86, 81, 80, 77, 74, 69, 68, 66, 61, 56], [101, 82, 81, 71, 65, 56], [80, 78, 77, 69, 51], [101, 100, 96, 94, 82, 81, 79, 78, 77, 75, 72, 65], [101, 98, 95, 85, 84, 81, 80, 74, 72, 69, 62], [84, 80, 78, 77, 74, 73, 72, 69, 61], [99, 85, 84, 82, 80, 78, 77, 74, 69, 66], [101, 100, 96, 94, 86, 85, 81, 78, 77, 76, 65], [101, 86, 81, 75, 72, 54], [100, 99, 98, 96, 95, 93, 86, 84, 81, 76, 74], [99, 98, 95, 94, 91, 85, 83, 80, 69], [101, 97, 94, 78, 77, 66], [100, 97, 94, 93, 92, 90, 89, 88, 83, 80, 78, 77], [97, 96, 94, 77, 75, 74, 72], [100, 99, 98, 97, 96, 95, 94, 93, 92, 88, 85, 83, 78], [100, 93, 91, 89, 84, 80, 79, 74], [93, 86, 84, 77, 75, 74], [98, 96, 93, 92, 88, 81, 78, 77, 75], [100, 99, 95, 91, 83, 69], [99, 98, 94, 93, 91, 90, 89, 88, 85, 79], [99, 97, 96, 94, 92, 91, 90, 88, 83, 82], [100, 99, 97, 95, 92, 90, 88, 86, 80], [99, 96, 93, 89, 77, 74], [99, 98, 93, 91, 90, 89, 74], [98, 96, 93, 92, 91, 90, 89, 88, 83], [92, 91, 90, 89, 88, 87, 84], [95, 92, 90, 88, 85, 83], [93, 90, 89, 88, 79], [98, 94, 90, 88, 78], [92, 88, 84, 79], [93, 90, 89, 88], [92, 91, 90, 89], [92, 88, 83], [95, 90, 89], [92, 90, 87], [95, 91], [91, 87], [97, 87], [96, 87], [91, 89], [89, 87], [87], [94], [87], [89], [102], [102], [102], [102], [102], [102], [102], [102], [102], [102], [102], [102], [102], [102], [102], []]
letting durations = [[0], [1, 2, 9], [1, 2, 8], [1, 3, 4], [4, 8, 9], [4, 4, 5], [1, 8, 10], [2, 7, 9], [3, 6, 7], [1, 4, 10], [3, 5, 6], [2, 7, 9], [4, 5, 7], [1, 6, 7], [6, 7, 10], [2, 6, 7], [4, 5, 6], [3, 7, 9], [3, 4, 5], [4, 5, 10], [1, 4, 7], [8, 8, 9], [1, 7, 10], [1, 3, 5], [1, 2, 3], [4, 6, 9], [1, 5, 10], [2, 6, 10], [2, 8, 9], [1, 3, 7], [2, 3, 7], [3, 4, 9], [2, 7, 7], [1, 2, 3], [3, 4, 9], [1, 6, 7], [1, 3, 4], [1, 2, 4], [1, 7, 8], [2, 10, 10], [2, 4, 9], [3, 8, 9], [2, 3, 9], [4, 6, 8], [3, 7, 10], [5, 9, 9], [4, 6, 10], [2, 3, 7], [1, 1, 2], [3, 5, 6], [1, 3, 6], [3, 7, 9], [4, 5, 6], [1, 5, 6], [1, 2, 3], [7, 10, 10], [1, 4, 9], [1, 1, 9], [1, 5, 7], [1, 8, 9], [8, 9, 10], [1, 7, 7], [5, 7, 8], [2, 3, 9], [5, 6, 9], [1, 4, 9], [3, 9, 10], [2, 4, 8], [3, 6, 7], [1, 4, 6], [4, 7, 9], [3, 6, 6], [1, 4, 10], [1, 3, 7], [4, 6, 9], [1, 6, 7], [1, 5, 8], [8, 8, 9], [1, 4, 6], [3, 4, 5], [1, 2, 7], [1, 2, 7], [1, 3, 6], [7, 8, 9], [3, 3, 4], [2, 5, 10], [1, 2, 10], [3, 7, 9], [4, 6, 10], [5, 9, 9], [2, 5, 6], [1, 4, 9], [5, 6, 7], [4, 5, 8], [5, 5, 9], [3, 4, 8], [1, 1, 4], [1, 3, 5], [2, 4, 10], [5, 9, 10], [1, 7, 10], [0]]
letting resourceUsage = [[[0, 0, 0, 0]], [[4, 2, 0, 9], [4, 2, 0, 8], [4, 2, 7, 0]], [[5, 2, 0, 8], [3, 1, 6, 0], [2, 1, 0, 6]], [[1, 2, 0, 7], [1, 1, 0, 4], [1, 1, 0, 3]], [[2, 3, 10, 0], [2, 3, 0, 2], [2, 3, 0, 1]], [[4, 3, 0, 5], [4, 3, 4, 0], [3, 1, 3, 0]], [[2, 4, 10, 0], [2, 4, 9, 0], [2, 4, 0, 4]], [[1, 3, 0, 8], [1, 3, 8, 0], [1, 3, 5, 0]], [[5, 4, 0, 8], [4, 2, 9, 0], [3, 2, 7, 0]], [[3, 4, 10, 0], [3, 4, 0, 6], [2, 4, 4, 0]], [[5, 3, 0, 6], [5, 2, 0, 2], [5, 2, 6, 0]], [[5, 2, 8, 0], [5, 2, 7, 0], [5, 2, 0, 4]], [[3, 1, 0, 10], [2, 1, 0, 7], [2, 1, 0, 5]], [[4, 3, 6, 0], [3, 1, 0, 1], [1, 1, 0, 1]], [[4, 5, 0, 2], [3, 4, 3, 0], [3, 2, 0, 1]], [[2, 1, 0, 7], [2, 1, 6, 0], [2, 1, 5, 0]], [[2, 4, 0, 10], [2, 4, 7, 0], [2, 3, 7, 0]], [[4, 2, 0, 2], [2, 2, 0, 1], [1, 2, 5, 0]], [[5, 3, 0, 3], [3, 3, 0, 1], [3, 3, 4, 0]], [[2, 4, 0, 2], [2, 3, 8, 0], [1, 3, 8, 0]], [[2, 4, 0, 7], [2, 4, 0, 6], [2, 4, 3, 0]], [[5, 3, 6, 0], [5, 3, 0, 3], [5, 3, 0, 2]], [[4, 4, 0, 9], [2, 4, 6, 0], [2, 4, 0, 4]], [[4, 3, 0, 9], [3, 3, 2, 0], [3, 3, 0, 5]], [[3, 3, 5, 0], [2, 3, 0, 5], [2, 2, 0, 4]], [[3, 4, 0, 9], [2, 3, 5, 0], [2, 3, 1, 0]], [[5, 1, 5, 0], [3, 1, 0, 7], [1, 1, 4, 0]], [[2, 2, 0, 6], [1, 2, 6, 0], [1, 2, 5, 0]], [[3, 5, 8, 0], [3, 3, 8, 0], [3, 1, 0, 2]], [[5, 4, 4, 0], [4, 3, 4, 0], [3, 2, 4, 0]], [[5, 5, 0, 9], [5, 4, 5, 0], [5, 3, 5, 0]], [[3, 3, 0, 6], [1, 2, 0, 5], [1, 2, 7, 0]], [[5, 4, 0, 8], [3, 4, 0, 5], [3, 2, 4, 0]], [[3, 4, 4, 0], [2, 4, 2, 0], [1, 3, 2, 0]], [[2, 3, 0, 7], [2, 2, 7, 0], [2, 2, 5, 0]], [[3, 5, 4, 0], [3, 4, 0, 2], [3, 3, 0, 2]], [[3, 3, 7, 0], [2, 3, 5, 0], [2, 3, 0, 1]], [[2, 4, 0, 7], [2, 3, 0, 3], [2, 3, 2, 0]], [[4, 5, 0, 4], [4, 4, 7, 0], [2, 4, 7, 0]], [[5, 3, 0, 8], [4, 3, 3, 0], [3, 3, 0, 2]], [[3, 3, 0, 8], [2, 3, 0, 4], [2, 3, 5, 0]], [[5, 4, 1, 0], [3, 4, 1, 0], [2, 3, 1, 0]], [[5, 4, 5, 0], [4, 4, 0, 4], [3, 3, 3, 0]], [[2, 1, 0, 5], [2, 1, 8, 0], [2, 1, 7, 0]], [[5, 3, 0, 2], [5, 2, 0, 2], [5, 2, 0, 1]], [[2, 5, 0, 6], [1, 4, 2, 0], [1, 3, 0, 3]], [[1, 2, 0, 7], [1, 1, 0, 5], [1, 1, 2, 0]], [[5, 3, 0, 3], [4, 3, 3, 0], [4, 3, 2, 0]], [[3, 3, 6, 0], [3, 3, 0, 2], [3, 2, 0, 2]], [[4, 2, 5, 0], [3, 2, 0, 1], [3, 1, 5, 0]], [[3, 4, 0, 9], [3, 4, 0, 6], [1, 4, 0, 4]], [[5, 4, 0, 2], [4, 4, 8, 0], [4, 4, 0, 2]], [[4, 2, 0, 10], [4, 2, 0, 9], [3, 2, 0, 8]], [[3, 4, 0, 7], [2, 3, 8, 0], [1, 2, 0, 1]], [[5, 2, 7, 0], [3, 2, 3, 0], [3, 2, 2, 0]], [[4, 3, 0, 2], [3, 2, 4, 0], [2, 1, 0, 2]], [[3, 3, 0, 10], [3, 3, 4, 0], [3, 3, 3, 0]], [[5, 3, 8, 0], [3, 3, 0, 5], [3, 1, 0, 4]], [[3, 5, 5, 0], [2, 3, 3, 0], [1, 3, 3, 0]], [[4, 3, 6, 0], [3, 3, 5, 0], [3, 2, 0, 4]], [[1, 5, 7, 0], [1, 5, 5, 0], [1, 5, 0, 9]], [[2, 3, 0, 4], [2, 2, 0, 4], [1, 1, 6, 0]], [[4, 5, 0, 9], [4, 5, 0, 8], [4, 5, 10, 0]], [[4, 5, 9, 0], [3, 5, 7, 0], [1, 5, 0, 3]], [[3, 4, 3, 0], [2, 4, 2, 0], [2, 4, 1, 0]], [[1, 5, 0, 7], [1, 3, 0, 7], [1, 2, 0, 6]], [[3, 4, 0, 5], [3, 3, 5, 0], [3, 2, 0, 3]], [[4, 5, 0, 7], [4, 3, 0, 6], [4, 2, 9, 0]], [[2, 4, 0, 8], [1, 4, 0, 8], [1, 4, 0, 7]], [[2, 3, 6, 0], [2, 2, 0, 5], [2, 2, 0, 4]], [[5, 3, 4, 0], [3, 2, 3, 0], [3, 2, 2, 0]], [[3, 4, 9, 0], [2, 2, 8, 0], [1, 2, 0, 3]], [[2, 3, 0, 6], [2, 3, 4, 0], [1, 3, 4, 0]], [[5, 3, 4, 0], [3, 3, 0, 2], [3, 3, 0, 1]], [[3, 3, 0, 7], [3, 2, 0, 6], [3, 1, 0, 1]], [[5, 3, 5, 0], [5, 2, 3, 0], [5, 2, 0, 4]], [[2, 5, 0, 8], [1, 3, 6, 0], [1, 3, 0, 7]], [[5, 5, 0, 8], [3, 4, 6, 0], [3, 4, 4, 0]], [[4, 3, 5, 0], [3, 1, 3, 0], [3, 1, 2, 0]], [[3, 2, 0, 5], [3, 2, 0, 4], [2, 2, 0, 5]], [[4, 3, 0, 5], [2, 2, 5, 0], [1, 1, 0, 1]], [[1, 4, 4, 0], [1, 3, 0, 6], [1, 2, 0, 6]], [[4, 1, 0, 6], [4, 1, 7, 0], [3, 1, 0, 6]], [[3, 3, 0, 2], [3, 2, 5, 0], [3, 2, 4, 0]], [[4, 1, 7, 0], [4, 1, 0, 4], [3, 1, 0, 3]], [[5, 3, 5, 0], [3, 3, 4, 0], [3, 3, 3, 0]], [[5, 4, 0, 10], [2, 4, 0, 6], [1, 3, 5, 0]], [[3, 1, 5, 0], [2, 1, 2, 0], [1, 1, 1, 0]], [[5, 3, 0, 9], [4, 3, 0, 9], [4, 3, 5, 0]], [[2, 4, 5, 0], [2, 4, 4, 0], [2, 4, 0, 7]], [[1, 4, 0, 3], [1, 3, 0, 2], [1, 1, 0, 2]], [[4, 3, 0, 2], [3, 2, 0, 2], [3, 2, 0, 1]], [[3, 3, 0, 3], [2, 3, 0, 2], [1, 3, 0, 1]], [[4, 3, 2, 0], [3, 3, 1, 0], [1, 3, 0, 2]], [[4, 4, 0, 3], [4, 2, 4, 0], [4, 2, 3, 0]], [[4, 4, 6, 0], [3, 2, 0, 7], [3, 2, 4, 0]], [[4, 3, 0, 7], [3, 3, 7, 0], [2, 2, 7, 0]], [[1, 4, 4, 0], [1, 4, 3, 0], [1, 4, 2, 0]], [[4, 5, 0, 4], [3, 3, 6, 0], [3, 2, 5, 0]], [[2, 3, 8, 0], [2, 3, 7, 0], [2, 3, 6, 0]], [[4, 4, 6, 0], [3, 3, 0, 5], [3, 2, 5, 0]], [[0, 0, 0, 0]]]
